1, 17, 26, 23, 25, 44, 37, 47, 45, 46, 51, 24, 32, 31, 36, 1
1, 33, 34, 35, 39, 42, 43, 50, 48, 49, 41, 40, 38, 20, 1
1, 19, 8, 13, 10, 11, 12, 9, 5, 6, 4, 7, 3, 2, 1
1, 30, 21, 29, 28, 27, 22, 53, 52, 15, 16, 18, 14, 1
